%%%mzn-stat: initTime=0.003069267
%%%mzn-stat: objective=313
%%%mzn-stat: nodes=744
%%%mzn-stat: restarts=0
%%%mzn-stat: peakDepth=85
%%%mzn-stat: solveTime=0.023981651
%%%mzn-stat: variables=282
%%%mzn-stat: propagators=184
%%%mzn-stat: failures=362
%%%mzn-stat: propagations=38910
%%%mzn-stat: nogoods=362
%%%mzn-stat: AverageConflictSize=4.5
%%%mzn-stat: NumUnitNogoodsLearned=312
%%%mzn-stat: AverageLearnedNogoodLength=1.9502762430939227
%%%mzn-stat: AverageBacktrackAmount=0
%%%mzn-stat: AverageLbd=1.580110497237569
%%%mzn-stat-end
maxleg = 313;
succ = array1d(1..20,[19, 15, 17, 2, 4, 13, 6, 11, 16, 9, 18, 14, 8, 20, 12, 1, 10, 3, 5, 7]);
% time elapsed: 1.57 s
----------
==========
% time elapsed: 1.57 s
%%%mzn-stat: initTime=0.003069267
%%%mzn-stat: objective=313
%%%mzn-stat: nodes=744
%%%mzn-stat: restarts=0
%%%mzn-stat: peakDepth=85
%%%mzn-stat: solveTime=0.023984839
%%%mzn-stat: variables=282
%%%mzn-stat: propagators=184
%%%mzn-stat: failures=362
%%%mzn-stat: propagations=38910
%%%mzn-stat: nogoods=362
%%%mzn-stat: AverageConflictSize=4.5
%%%mzn-stat: NumUnitNogoodsLearned=312
%%%mzn-stat: AverageLearnedNogoodLength=1.9502762430939227
%%%mzn-stat: AverageBacktrackAmount=0
%%%mzn-stat: AverageLbd=1.580110497237569
%%%mzn-stat-end
